<?xml version = "1.0" standalone="yes"?>
<!-- This file has been generated by DOcplex version 2.23.222  -->
<CPLEXSolution version="1.0">
 <header
   problemName="CVRP"
   objectiveValue="16573.5"
  />
 <variables>
  <variable name="x_0_3" index="2" value="1.00000"/>
  <variable name="x_0_5" index="4" value="1.00000"/>
  <variable name="x_0_8" index="7" value="1.00000"/>
  <variable name="x_0_12" index="11" value="1.00000"/>
  <variable name="x_0_14" index="13" value="1.00000"/>
  <variable name="x_0_15" index="14" value="1.00000"/>
  <variable name="x_0_16" index="15" value="1.00000"/>
  <variable name="x_0_18" index="17" value="1.00000"/>
  <variable name="x_0_19" index="18" value="1.00000"/>
  <variable name="x_0_22" index="21" value="1.00000"/>
  <variable name="x_0_24" index="23" value="1.00000"/>
  <variable name="x_0_25" index="24" value="1.00000"/>
  <variable name="x_0_26" index="25" value="1.00000"/>
  <variable name="x_0_27" index="26" value="1.00000"/>
  <variable name="x_0_29" index="28" value="1.00000"/>
  <variable name="x_0_30" index="29" value="1.00000"/>
  <variable name="x_1_13" index="42" value="1.00000"/>
  <variable name="x_2_10" index="69" value="1.00000"/>
  <variable name="x_3_2" index="92" value="1.00000"/>
  <variable name="x_4_1" index="121" value="1.00000"/>
  <variable name="x_5_0" index="150" value="1.00000"/>
  <variable name="x_6_0" index="180" value="1.00000"/>
  <variable name="x_7_0" index="210" value="1.00000"/>
  <variable name="x_8_0" index="240" value="1.00000"/>
  <variable name="x_9_0" index="270" value="1.00000"/>
  <variable name="x_10_0" index="300" value="1.00000"/>
  <variable name="x_11_0" index="330" value="1.00000"/>
  <variable name="x_12_23" index="382" value="1.00000"/>
  <variable name="x_13_11" index="401" value="1.00000"/>
  <variable name="x_14_0" index="420" value="1.00000"/>
  <variable name="x_15_4" index="454" value="1.00000"/>
  <variable name="x_16_0" index="480" value="1.00000"/>
  <variable name="x_17_0" index="510" value="1.00000"/>
  <variable name="x_18_28" index="567" value="1.00000"/>
  <variable name="x_19_21" index="590" value="1.00000"/>
  <variable name="x_20_0" index="600" value="1.00000"/>
  <variable name="x_21_0" index="630" value="1.00000"/>
  <variable name="x_22_7" index="667" value="1.00000"/>
  <variable name="x_23_6" index="696" value="1.00000"/>
  <variable name="x_24_0" index="720" value="1.00000"/>
  <variable name="x_25_0" index="750" value="1.00000"/>
  <variable name="x_26_17" index="797" value="1.00000"/>
  <variable name="x_27_20" index="830" value="1.00000"/>
  <variable name="x_28_0" index="840" value="1.00000"/>
  <variable name="x_29_0" index="870" value="1.00000"/>
  <variable name="x_30_9" index="909" value="1.00000"/>
  <variable name="u_1" index="930" value="67.00000"/>
  <variable name="u_2" index="931" value="26.00000"/>
  <variable name="u_3" index="932" value="8.00000"/>
  <variable name="u_4" index="933" value="46.00000"/>
  <variable name="u_5" index="934" value="74.00000"/>
  <variable name="u_6" index="935" value="74.00000"/>
  <variable name="u_7" index="936" value="74.00000"/>
  <variable name="u_8" index="937" value="65.00000"/>
  <variable name="u_9" index="938" value="64.00000"/>
  <variable name="u_10" index="939" value="67.00000"/>
  <variable name="u_11" index="940" value="74.00000"/>
  <variable name="u_12" index="941" value="39.00000"/>
  <variable name="u_13" index="942" value="70.00000"/>
  <variable name="u_14" index="943" value="49.00000"/>
  <variable name="u_15" index="944" value="30.00000"/>
  <variable name="u_16" index="945" value="63.00000"/>
  <variable name="u_17" index="946" value="74.00000"/>
  <variable name="u_18" index="947" value="36.00000"/>
  <variable name="u_19" index="948" value="49.00000"/>
  <variable name="u_20" index="949" value="74.00000"/>
  <variable name="u_21" index="950" value="71.00000"/>
  <variable name="u_22" index="951" value="19.00000"/>
  <variable name="u_23" index="952" value="53.00000"/>
  <variable name="u_24" index="953" value="74.00000"/>
  <variable name="u_25" index="954" value="70.00000"/>
  <variable name="u_26" index="955" value="59.00000"/>
  <variable name="u_27" index="956" value="41.00000"/>
  <variable name="u_28" index="957" value="71.00000"/>
  <variable name="u_29" index="958" value="61.00000"/>
  <variable name="u_30" index="959" value="40.00000"/>
 </variables>
</CPLEXSolution>
